p edge 2772 2702
e 1 2
e 1 3
e 1 4
e 1 5
e 1 6
e 1 7
e 1 8
e 1 9
e 1 10
e 1 11
e 1 12
e 1 13
e 1 14
e 1 15
e 1 16
e 1 17
e 1 18
e 1 19
e 1 20
e 1 21
e 1 22
e 1 23
e 1 24
e 1 25
e 1 26
e 1 27
e 1 28
e 1 29
e 1 30
e 1 31
e 1 32
e 1 33
e 1 34
e 1 35
e 1 36
e 37 38
e 37 39
e 37 40
e 37 41
e 37 42
e 37 43
e 37 44
e 37 45
e 37 46
e 37 47
e 37 48
e 37 49
e 37 50
e 37 51
e 37 52
e 37 53
e 37 54
e 37 55
e 37 56
e 37 57
e 37 58
e 37 59
e 37 60
e 37 61
e 37 62
e 37 63
e 37 64
e 37 65
e 37 66
e 37 67
e 37 68
e 37 69
e 37 70
e 37 71
e 37 72
e 37 73
e 37 74
e 37 75
e 37 76
e 37 77
e 37 78
e 37 79
e 37 80
e 37 81
e 37 82
e 37 83
e 37 84
e 37 85
e 37 86
e 37 87
e 37 88
e 37 89
e 37 90
e 37 91
e 37 92
e 37 93
e 37 94
e 37 95
e 37 96
e 37 97
e 37 98
e 37 99
e 37 100
e 37 101
e 37 102
e 103 104
e 103 105
e 103 106
e 103 107
e 103 108
e 103 109
e 103 110
e 103 111
e 103 112
e 103 113
e 103 114
e 103 115
e 103 116
e 103 117
e 103 118
e 103 119
e 103 120
e 103 121
e 103 122
e 103 123
e 103 124
e 103 125
e 103 126
e 103 127
e 103 128
e 103 129
e 103 130
e 103 131
e 103 132
e 103 133
e 103 134
e 103 135
e 103 136
e 103 137
e 103 138
e 103 139
e 103 140
e 103 141
e 142 143
e 142 144
e 142 145
e 142 146
e 142 147
e 142 148
e 142 149
e 142 150
e 142 151
e 142 152
e 142 153
e 142 154
e 142 155
e 142 156
e 142 157
e 142 158
e 142 159
e 142 160
e 142 161
e 142 162
e 142 163
e 142 164
e 142 165
e 142 166
e 142 167
e 142 168
e 142 169
e 142 170
e 142 171
e 142 172
e 142 173
e 142 174
e 142 175
e 142 176
e 142 177
e 178 179
e 178 180
e 178 181
e 178 182
e 178 183
e 178 184
e 178 185
e 178 186
e 178 187
e 178 188
e 178 189
e 178 190
e 178 191
e 178 192
e 178 193
e 178 194
e 178 195
e 178 196
e 178 197
e 178 198
e 178 199
e 178 200
e 178 201
e 178 202
e 178 203
e 178 204
e 178 205
e 178 206
e 178 207
e 178 208
e 178 209
e 178 210
e 178 211
e 178 212
e 178 213
e 178 214
e 178 215
e 178 216
e 178 217
e 178 218
e 178 219
e 178 220
e 178 221
e 178 222
e 178 223
e 178 224
e 178 225
e 178 226
e 178 227
e 178 228
e 178 229
e 178 230
e 178 231
e 178 232
e 178 233
e 178 234
e 178 235
e 178 236
e 237 238
e 237 239
e 237 240
e 237 241
e 237 242
e 237 243
e 237 244
e 237 245
e 237 246
e 237 247
e 237 248
e 237 249
e 237 250
e 237 251
e 237 252
e 237 253
e 237 254
e 237 255
e 237 256
e 237 257
e 237 258
e 237 259
e 237 260
e 237 261
e 237 262
e 237 263
e 237 264
e 237 265
e 237 266
e 237 267
e 237 268
e 237 269
e 237 270
e 237 271
e 237 272
e 237 273
e 237 274
e 237 275
e 237 276
e 237 277
e 237 278
e 237 279
e 237 280
e 237 281
e 237 282
e 237 283
e 237 284
e 237 285
e 237 286
e 237 287
e 237 288
e 237 289
e 237 290
e 237 291
e 237 292
e 237 293
e 294 295
e 294 296
e 294 297
e 294 298
e 294 299
e 294 300
e 294 301
e 294 302
e 294 303
e 294 304
e 294 305
e 294 306
e 294 307
e 294 308
e 294 309
e 294 310
e 294 311
e 294 312
e 294 313
e 294 314
e 294 315
e 294 316
e 294 317
e 294 318
e 294 319
e 294 320
e 294 321
e 294 322
e 294 323
e 294 324
e 294 325
e 294 326
e 294 327
e 294 328
e 294 329
e 294 330
e 294 331
e 332 333
e 332 334
e 332 335
e 332 336
e 332 337
e 332 338
e 332 339
e 332 340
e 332 341
e 332 342
e 332 343
e 332 344
e 332 345
e 332 346
e 332 347
e 332 348
e 332 349
e 332 350
e 332 351
e 332 352
e 353 354
e 353 355
e 353 356
e 353 357
e 353 358
e 353 359
e 353 360
e 353 361
e 353 362
e 353 363
e 353 364
e 353 365
e 353 366
e 353 367
e 353 368
e 353 369
e 353 370
e 353 371
e 353 372
e 353 373
e 353 374
e 353 375
e 353 376
e 353 377
e 353 378
e 353 379
e 353 380
e 353 381
e 353 382
e 353 383
e 353 384
e 353 385
e 353 386
e 353 387
e 353 388
e 353 389
e 353 390
e 353 391
e 353 392
e 353 393
e 353 394
e 353 395
e 353 396
e 353 397
e 353 398
e 353 399
e 353 400
e 353 401
e 353 402
e 353 403
e 353 404
e 353 405
e 353 406
e 353 407
e 353 408
e 353 409
e 353 410
e 353 411
e 353 412
e 353 413
e 353 414
e 353 415
e 353 416
e 353 417
e 353 418
e 353 419
e 353 420
e 353 421
e 422 423
e 422 424
e 422 425
e 422 426
e 422 427
e 422 428
e 422 429
e 422 430
e 422 431
e 422 432
e 422 433
e 422 434
e 422 435
e 422 436
e 422 437
e 422 438
e 422 439
e 422 440
e 422 441
e 422 442
e 422 443
e 422 444
e 422 445
e 422 446
e 422 447
e 422 448
e 422 449
e 422 450
e 422 451
e 422 452
e 453 454
e 453 455
e 453 456
e 453 457
e 453 458
e 453 459
e 453 460
e 453 461
e 453 462
e 453 463
e 453 464
e 453 465
e 453 466
e 453 467
e 453 468
e 453 469
e 453 470
e 453 471
e 453 472
e 453 473
e 474 475
e 474 476
e 474 477
e 474 478
e 474 479
e 474 480
e 474 481
e 474 482
e 474 483
e 474 484
e 474 485
e 474 486
e 474 487
e 474 488
e 474 489
e 474 490
e 474 491
e 474 492
e 474 493
e 474 494
e 474 495
e 474 496
e 474 497
e 498 499
e 498 500
e 498 501
e 498 502
e 498 503
e 498 504
e 498 505
e 498 506
e 498 507
e 498 508
e 498 509
e 498 510
e 498 511
e 498 512
e 498 513
e 498 514
e 498 515
e 498 516
e 498 517
e 498 518
e 498 519
e 498 520
e 498 521
e 498 522
e 498 523
e 498 524
e 498 525
e 498 526
e 498 527
e 498 528
e 498 529
e 498 530
e 498 531
e 498 532
e 498 533
e 498 534
e 498 535
e 498 536
e 498 537
e 498 538
e 498 539
e 498 540
e 498 541
e 498 542
e 498 543
e 498 544
e 498 545
e 498 546
e 498 547
e 498 548
e 498 549
e 498 550
e 498 551
e 498 552
e 498 553
e 498 554
e 498 555
e 498 556
e 498 557
e 498 558
e 498 559
e 498 560
e 498 561
e 498 562
e 498 563
e 498 564
e 565 566
e 565 567
e 565 568
e 565 569
e 565 570
e 565 571
e 565 572
e 565 573
e 565 574
e 565 575
e 565 576
e 565 577
e 565 578
e 565 579
e 565 580
e 565 581
e 565 582
e 565 583
e 565 584
e 565 585
e 565 586
e 565 587
e 565 588
e 565 589
e 565 590
e 565 591
e 565 592
e 565 593
e 565 594
e 595 596
e 595 597
e 595 598
e 595 599
e 595 600
e 595 601
e 595 602
e 595 603
e 595 604
e 595 605
e 606 607
e 606 608
e 606 609
e 606 610
e 606 611
e 606 612
e 606 613
e 606 614
e 606 615
e 606 616
e 606 617
e 606 618
e 606 619
e 606 620
e 606 621
e 606 622
e 606 623
e 606 624
e 606 625
e 606 626
e 606 627
e 606 628
e 606 629
e 606 630
e 606 631
e 632 633
e 632 634
e 632 635
e 632 636
e 632 637
e 632 638
e 632 639
e 632 640
e 632 641
e 632 642
e 632 643
e 632 644
e 632 645
e 632 646
e 632 647
e 632 648
e 632 649
e 632 650
e 632 651
e 632 652
e 632 653
e 632 654
e 632 655
e 632 656
e 632 657
e 632 658
e 632 659
e 632 660
e 632 661
e 632 662
e 632 663
e 632 664
e 632 665
e 632 666
e 632 667
e 632 668
e 632 669
e 632 670
e 632 671
e 632 672
e 632 673
e 632 674
e 632 675
e 632 676
e 632 677
e 632 678
e 632 679
e 632 680
e 681 682
e 681 683
e 681 684
e 681 685
e 681 686
e 681 687
e 681 688
e 681 689
e 681 690
e 681 691
e 681 692
e 681 693
e 681 694
e 681 695
e 681 696
e 681 697
e 681 698
e 681 699
e 681 700
e 681 701
e 681 702
e 681 703
e 681 704
e 681 705
e 681 706
e 681 707
e 681 708
e 709 710
e 709 711
e 709 712
e 709 713
e 709 714
e 709 715
e 709 716
e 709 717
e 709 718
e 709 719
e 709 720
e 709 721
e 709 722
e 709 723
e 709 724
e 709 725
e 709 726
e 709 727
e 709 728
e 709 729
e 709 730
e 709 731
e 709 732
e 709 733
e 709 734
e 709 735
e 709 736
e 709 737
e 709 738
e 709 739
e 709 740
e 709 741
e 709 742
e 709 743
e 709 744
e 709 745
e 709 746
e 709 747
e 709 748
e 709 749
e 709 750
e 709 751
e 709 752
e 709 753
e 709 754
e 709 755
e 709 756
e 709 757
e 709 758
e 709 759
e 709 760
e 709 761
e 709 762
e 709 763
e 709 764
e 709 765
e 709 766
e 709 767
e 709 768
e 709 769
e 709 770
e 709 771
e 709 772
e 709 773
e 709 774
e 709 775
e 776 777
e 776 778
e 776 779
e 776 780
e 776 781
e 776 782
e 776 783
e 776 784
e 776 785
e 776 786
e 776 787
e 776 788
e 776 789
e 776 790
e 776 791
e 776 792
e 776 793
e 776 794
e 776 795
e 776 796
e 776 797
e 776 798
e 776 799
e 776 800
e 776 801
e 776 802
e 776 803
e 776 804
e 776 805
e 776 806
e 776 807
e 776 808
e 776 809
e 776 810
e 776 811
e 776 812
e 776 813
e 814 815
e 814 816
e 814 817
e 814 818
e 814 819
e 814 820
e 814 821
e 814 822
e 814 823
e 814 824
e 814 825
e 814 826
e 814 827
e 814 828
e 814 829
e 814 830
e 814 831
e 814 832
e 814 833
e 814 834
e 814 835
e 814 836
e 814 837
e 814 838
e 814 839
e 814 840
e 814 841
e 814 842
e 814 843
e 814 844
e 814 845
e 814 846
e 814 847
e 814 848
e 814 849
e 814 850
e 814 851
e 814 852
e 814 853
e 814 854
e 814 855
e 814 856
e 814 857
e 858 859
e 858 860
e 858 861
e 858 862
e 858 863
e 858 864
e 858 865
e 858 866
e 858 867
e 858 868
e 858 869
e 858 870
e 858 871
e 858 872
e 858 873
e 858 874
e 858 875
e 858 876
e 858 877
e 858 878
e 858 879
e 858 880
e 858 881
e 858 882
e 858 883
e 858 884
e 858 885
e 858 886
e 858 887
e 858 888
e 858 889
e 858 890
e 858 891
e 858 892
e 858 893
e 858 894
e 858 895
e 858 896
e 858 897
e 858 898
e 858 899
e 858 900
e 858 901
e 858 902
e 858 903
e 858 904
e 858 905
e 858 906
e 858 907
e 858 908
e 858 909
e 858 910
e 858 911
e 858 912
e 858 913
e 858 914
e 858 915
e 858 916
e 858 917
e 858 918
e 858 919
e 858 920
e 858 921
e 858 922
e 858 923
e 858 924
e 858 925
e 858 926
e 858 927
e 858 928
e 929 930
e 929 931
e 929 932
e 929 933
e 929 934
e 929 935
e 929 936
e 929 937
e 929 938
e 929 939
e 929 940
e 929 941
e 929 942
e 929 943
e 929 944
e 929 945
e 929 946
e 929 947
e 929 948
e 929 949
e 929 950
e 929 951
e 929 952
e 929 953
e 929 954
e 929 955
e 929 956
e 929 957
e 929 958
e 929 959
e 929 960
e 929 961
e 929 962
e 929 963
e 929 964
e 929 965
e 929 966
e 929 967
e 929 968
e 929 969
e 929 970
e 929 971
e 929 972
e 929 973
e 929 974
e 929 975
e 929 976
e 929 977
e 929 978
e 929 979
e 929 980
e 929 981
e 929 982
e 983 984
e 983 985
e 983 986
e 983 987
e 983 988
e 983 989
e 983 990
e 983 991
e 983 992
e 983 993
e 983 994
e 983 995
e 983 996
e 983 997
e 983 998
e 983 999
e 983 1000
e 983 1001
e 983 1002
e 983 1003
e 1004 1005
e 1004 1006
e 1004 1007
e 1004 1008
e 1004 1009
e 1004 1010
e 1004 1011
e 1004 1012
e 1004 1013
e 1004 1014
e 1004 1015
e 1004 1016
e 1004 1017
e 1004 1018
e 1004 1019
e 1004 1020
e 1004 1021
e 1004 1022
e 1004 1023
e 1004 1024
e 1004 1025
e 1004 1026
e 1004 1027
e 1004 1028
e 1004 1029
e 1004 1030
e 1004 1031
e 1032 1033
e 1032 1034
e 1032 1035
e 1032 1036
e 1032 1037
e 1032 1038
e 1032 1039
e 1032 1040
e 1032 1041
e 1032 1042
e 1032 1043
e 1032 1044
e 1032 1045
e 1032 1046
e 1032 1047
e 1032 1048
e 1032 1049
e 1032 1050
e 1032 1051
e 1032 1052
e 1032 1053
e 1032 1054
e 1032 1055
e 1032 1056
e 1032 1057
e 1032 1058
e 1032 1059
e 1032 1060
e 1032 1061
e 1032 1062
e 1032 1063
e 1032 1064
e 1032 1065
e 1032 1066
e 1032 1067
e 1032 1068
e 1032 1069
e 1032 1070
e 1032 1071
e 1032 1072
e 1032 1073
e 1032 1074
e 1032 1075
e 1032 1076
e 1032 1077
e 1078 1079
e 1078 1080
e 1078 1081
e 1078 1082
e 1078 1083
e 1078 1084
e 1078 1085
e 1078 1086
e 1078 1087
e 1078 1088
e 1078 1089
e 1078 1090
e 1078 1091
e 1078 1092
e 1078 1093
e 1078 1094
e 1078 1095
e 1078 1096
e 1078 1097
e 1078 1098
e 1078 1099
e 1078 1100
e 1078 1101
e 1078 1102
e 1078 1103
e 1078 1104
e 1078 1105
e 1078 1106
e 1078 1107
e 1078 1108
e 1078 1109
e 1078 1110
e 1078 1111
e 1078 1112
e 1078 1113
e 1078 1114
e 1078 1115
e 1078 1116
e 1078 1117
e 1078 1118
e 1078 1119
e 1078 1120
e 1078 1121
e 1078 1122
e 1078 1123
e 1078 1124
e 1078 1125
e 1078 1126
e 1078 1127
e 1078 1128
e 1078 1129
e 1078 1130
e 1078 1131
e 1078 1132
e 1078 1133
e 1078 1134
e 1078 1135
e 1078 1136
e 1078 1137
e 1138 1139
e 1138 1140
e 1138 1141
e 1138 1142
e 1138 1143
e 1138 1144
e 1138 1145
e 1138 1146
e 1138 1147
e 1138 1148
e 1138 1149
e 1138 1150
e 1138 1151
e 1138 1152
e 1138 1153
e 1138 1154
e 1138 1155
e 1138 1156
e 1138 1157
e 1138 1158
e 1138 1159
e 1138 1160
e 1138 1161
e 1162 1163
e 1162 1164
e 1162 1165
e 1162 1166
e 1162 1167
e 1162 1168
e 1162 1169
e 1162 1170
e 1162 1171
e 1162 1172
e 1162 1173
e 1162 1174
e 1162 1175
e 1162 1176
e 1162 1177
e 1162 1178
e 1162 1179
e 1162 1180
e 1162 1181
e 1162 1182
e 1162 1183
e 1162 1184
e 1162 1185
e 1162 1186
e 1162 1187
e 1162 1188
e 1162 1189
e 1162 1190
e 1162 1191
e 1162 1192
e 1162 1193
e 1162 1194
e 1162 1195
e 1162 1196
e 1162 1197
e 1162 1198
e 1162 1199
e 1162 1200
e 1162 1201
e 1162 1202
e 1162 1203
e 1162 1204
e 1162 1205
e 1162 1206
e 1162 1207
e 1162 1208
e 1162 1209
e 1162 1210
e 1162 1211
e 1162 1212
e 1162 1213
e 1162 1214
e 1162 1215
e 1162 1216
e 1162 1217
e 1162 1218
e 1162 1219
e 1162 1220
e 1162 1221
e 1162 1222
e 1162 1223
e 1162 1224
e 1162 1225
e 1162 1226
e 1162 1227
e 1228 1229
e 1228 1230
e 1228 1231
e 1228 1232
e 1228 1233
e 1228 1234
e 1228 1235
e 1228 1236
e 1228 1237
e 1228 1238
e 1228 1239
e 1228 1240
e 1228 1241
e 1228 1242
e 1228 1243
e 1228 1244
e 1228 1245
e 1246 1247
e 1246 1248
e 1246 1249
e 1246 1250
e 1246 1251
e 1246 1252
e 1246 1253
e 1246 1254
e 1246 1255
e 1246 1256
e 1246 1257
e 1246 1258
e 1246 1259
e 1246 1260
e 1246 1261
e 1246 1262
e 1246 1263
e 1246 1264
e 1246 1265
e 1246 1266
e 1246 1267
e 1246 1268
e 1246 1269
e 1246 1270
e 1246 1271
e 1246 1272
e 1246 1273
e 1246 1274
e 1246 1275
e 1246 1276
e 1246 1277
e 1246 1278
e 1246 1279
e 1246 1280
e 1246 1281
e 1246 1282
e 1246 1283
e 1246 1284
e 1246 1285
e 1246 1286
e 1246 1287
e 1246 1288
e 1246 1289
e 1246 1290
e 1246 1291
e 1246 1292
e 1246 1293
e 1246 1294
e 1246 1295
e 1246 1296
e 1246 1297
e 1298 1299
e 1298 1300
e 1298 1301
e 1298 1302
e 1298 1303
e 1298 1304
e 1298 1305
e 1298 1306
e 1298 1307
e 1298 1308
e 1298 1309
e 1298 1310
e 1298 1311
e 1298 1312
e 1298 1313
e 1314 1315
e 1314 1316
e 1314 1317
e 1314 1318
e 1314 1319
e 1314 1320
e 1314 1321
e 1314 1322
e 1314 1323
e 1314 1324
e 1314 1325
e 1314 1326
e 1314 1327
e 1314 1328
e 1314 1329
e 1314 1330
e 1314 1331
e 1314 1332
e 1314 1333
e 1314 1334
e 1314 1335
e 1314 1336
e 1314 1337
e 1314 1338
e 1314 1339
e 1314 1340
e 1314 1341
e 1314 1342
e 1314 1343
e 1314 1344
e 1314 1345
e 1314 1346
e 1314 1347
e 1314 1348
e 1314 1349
e 1314 1350
e 1314 1351
e 1314 1352
e 1314 1353
e 1314 1354
e 1314 1355
e 1314 1356
e 1314 1357
e 1314 1358
e 1314 1359
e 1314 1360
e 1314 1361
e 1314 1362
e 1314 1363
e 1314 1364
e 1314 1365
e 1314 1366
e 1314 1367
e 1314 1368
e 1314 1369
e 1314 1370
e 1314 1371
e 1314 1372
e 1314 1373
e 1314 1374
e 1314 1375
e 1376 1377
e 1376 1378
e 1376 1379
e 1376 1380
e 1376 1381
e 1376 1382
e 1376 1383
e 1376 1384
e 1376 1385
e 1376 1386
e 1376 1387
e 1376 1388
e 1376 1389
e 1376 1390
e 1376 1391
e 1376 1392
e 1376 1393
e 1376 1394
e 1376 1395
e 1376 1396
e 1376 1397
e 1376 1398
e 1376 1399
e 1376 1400
e 1376 1401
e 1376 1402
e 1376 1403
e 1376 1404
e 1376 1405
e 1376 1406
e 1376 1407
e 1376 1408
e 1376 1409
e 1376 1410
e 1376 1411
e 1376 1412
e 1376 1413
e 1376 1414
e 1415 1416
e 1415 1417
e 1415 1418
e 1415 1419
e 1415 1420
e 1415 1421
e 1415 1422
e 1415 1423
e 1415 1424
e 1415 1425
e 1415 1426
e 1415 1427
e 1415 1428
e 1415 1429
e 1415 1430
e 1415 1431
e 1415 1432
e 1415 1433
e 1415 1434
e 1415 1435
e 1415 1436
e 1415 1437
e 1415 1438
e 1415 1439
e 1415 1440
e 1415 1441
e 1415 1442
e 1415 1443
e 1415 1444
e 1415 1445
e 1415 1446
e 1415 1447
e 1415 1448
e 1415 1449
e 1415 1450
e 1415 1451
e 1415 1452
e 1415 1453
e 1415 1454
e 1415 1455
e 1415 1456
e 1415 1457
e 1415 1458
e 1415 1459
e 1415 1460
e 1415 1461
e 1415 1462
e 1415 1463
e 1415 1464
e 1415 1465
e 1415 1466
e 1415 1467
e 1415 1468
e 1415 1469
e 1415 1470
e 1415 1471
e 1415 1472
e 1473 1474
e 1473 1475
e 1473 1476
e 1473 1477
e 1473 1478
e 1473 1479
e 1473 1480
e 1473 1481
e 1473 1482
e 1473 1483
e 1473 1484
e 1473 1485
e 1473 1486
e 1473 1487
e 1473 1488
e 1473 1489
e 1473 1490
e 1473 1491
e 1473 1492
e 1473 1493
e 1473 1494
e 1473 1495
e 1473 1496
e 1473 1497
e 1473 1498
e 1473 1499
e 1473 1500
e 1473 1501
e 1473 1502
e 1473 1503
e 1473 1504
e 1473 1505
e 1473 1506
e 1473 1507
e 1473 1508
e 1473 1509
e 1473 1510
e 1473 1511
e 1473 1512
e 1473 1513
e 1473 1514
e 1473 1515
e 1473 1516
e 1473 1517
e 1473 1518
e 1473 1519
e 1473 1520
e 1473 1521
e 1473 1522
e 1473 1523
e 1473 1524
e 1473 1525
e 1526 1527
e 1526 1528
e 1526 1529
e 1526 1530
e 1526 1531
e 1526 1532
e 1526 1533
e 1526 1534
e 1526 1535
e 1526 1536
e 1526 1537
e 1526 1538
e 1526 1539
e 1526 1540
e 1526 1541
e 1526 1542
e 1526 1543
e 1526 1544
e 1526 1545
e 1526 1546
e 1526 1547
e 1526 1548
e 1526 1549
e 1526 1550
e 1551 1552
e 1551 1553
e 1551 1554
e 1551 1555
e 1551 1556
e 1551 1557
e 1551 1558
e 1551 1559
e 1551 1560
e 1551 1561
e 1551 1562
e 1551 1563
e 1551 1564
e 1551 1565
e 1551 1566
e 1551 1567
e 1551 1568
e 1551 1569
e 1551 1570
e 1551 1571
e 1551 1572
e 1551 1573
e 1551 1574
e 1551 1575
e 1551 1576
e 1551 1577
e 1551 1578
e 1551 1579
e 1551 1580
e 1551 1581
e 1551 1582
e 1551 1583
e 1551 1584
e 1551 1585
e 1551 1586
e 1551 1587
e 1551 1588
e 1551 1589
e 1551 1590
e 1551 1591
e 1551 1592
e 1551 1593
e 1551 1594
e 1551 1595
e 1551 1596
e 1551 1597
e 1551 1598
e 1551 1599
e 1551 1600
e 1551 1601
e 1551 1602
e 1551 1603
e 1551 1604
e 1605 1606
e 1605 1607
e 1605 1608
e 1605 1609
e 1605 1610
e 1605 1611
e 1605 1612
e 1605 1613
e 1605 1614
e 1605 1615
e 1605 1616
e 1605 1617
e 1605 1618
e 1605 1619
e 1605 1620
e 1605 1621
e 1605 1622
e 1605 1623
e 1605 1624
e 1605 1625
e 1605 1626
e 1605 1627
e 1605 1628
e 1605 1629
e 1605 1630
e 1605 1631
e 1605 1632
e 1633 1634
e 1633 1635
e 1633 1636
e 1633 1637
e 1633 1638
e 1633 1639
e 1633 1640
e 1633 1641
e 1633 1642
e 1633 1643
e 1633 1644
e 1633 1645
e 1633 1646
e 1633 1647
e 1633 1648
e 1633 1649
e 1633 1650
e 1633 1651
e 1633 1652
e 1633 1653
e 1633 1654
e 1633 1655
e 1633 1656
e 1657 1658
e 1657 1659
e 1657 1660
e 1657 1661
e 1657 1662
e 1657 1663
e 1657 1664
e 1657 1665
e 1657 1666
e 1657 1667
e 1657 1668
e 1657 1669
e 1657 1670
e 1657 1671
e 1657 1672
e 1657 1673
e 1657 1674
e 1675 1676
e 1675 1677
e 1675 1678
e 1675 1679
e 1675 1680
e 1675 1681
e 1675 1682
e 1675 1683
e 1675 1684
e 1675 1685
e 1675 1686
e 1675 1687
e 1675 1688
e 1675 1689
e 1675 1690
e 1675 1691
e 1675 1692
e 1675 1693
e 1675 1694
e 1675 1695
e 1675 1696
e 1675 1697
e 1675 1698
e 1675 1699
e 1675 1700
e 1675 1701
e 1675 1702
e 1675 1703
e 1675 1704
e 1675 1705
e 1675 1706
e 1675 1707
e 1675 1708
e 1675 1709
e 1675 1710
e 1675 1711
e 1675 1712
e 1675 1713
e 1675 1714
e 1675 1715
e 1675 1716
e 1675 1717
e 1675 1718
e 1675 1719
e 1675 1720
e 1675 1721
e 1675 1722
e 1675 1723
e 1675 1724
e 1675 1725
e 1675 1726
e 1675 1727
e 1675 1728
e 1675 1729
e 1675 1730
e 1675 1731
e 1675 1732
e 1675 1733
e 1675 1734
e 1735 1736
e 1735 1737
e 1735 1738
e 1735 1739
e 1735 1740
e 1735 1741
e 1735 1742
e 1735 1743
e 1735 1744
e 1735 1745
e 1735 1746
e 1735 1747
e 1735 1748
e 1735 1749
e 1735 1750
e 1735 1751
e 1735 1752
e 1735 1753
e 1735 1754
e 1755 1756
e 1755 1757
e 1755 1758
e 1755 1759
e 1755 1760
e 1755 1761
e 1755 1762
e 1755 1763
e 1755 1764
e 1755 1765
e 1755 1766
e 1755 1767
e 1755 1768
e 1755 1769
e 1755 1770
e 1755 1771
e 1755 1772
e 1755 1773
e 1755 1774
e 1775 1776
e 1775 1777
e 1775 1778
e 1775 1779
e 1775 1780
e 1775 1781
e 1775 1782
e 1775 1783
e 1775 1784
e 1775 1785
e 1775 1786
e 1775 1787
e 1775 1788
e 1775 1789
e 1775 1790
e 1775 1791
e 1775 1792
e 1775 1793
e 1775 1794
e 1775 1795
e 1775 1796
e 1775 1797
e 1775 1798
e 1775 1799
e 1775 1800
e 1775 1801
e 1775 1802
e 1775 1803
e 1775 1804
e 1775 1805
e 1775 1806
e 1775 1807
e 1775 1808
e 1809 1810
e 1809 1811
e 1809 1812
e 1809 1813
e 1809 1814
e 1809 1815
e 1809 1816
e 1809 1817
e 1809 1818
e 1809 1819
e 1809 1820
e 1809 1821
e 1809 1822
e 1809 1823
e 1809 1824
e 1809 1825
e 1809 1826
e 1809 1827
e 1809 1828
e 1809 1829
e 1809 1830
e 1809 1831
e 1809 1832
e 1809 1833
e 1809 1834
e 1809 1835
e 1809 1836
e 1809 1837
e 1809 1838
e 1809 1839
e 1809 1840
e 1809 1841
e 1809 1842
e 1809 1843
e 1809 1844
e 1809 1845
e 1809 1846
e 1809 1847
e 1809 1848
e 1809 1849
e 1809 1850
e 1809 1851
e 1809 1852
e 1809 1853
e 1809 1854
e 1855 1856
e 1855 1857
e 1855 1858
e 1855 1859
e 1855 1860
e 1855 1861
e 1855 1862
e 1855 1863
e 1855 1864
e 1855 1865
e 1855 1866
e 1855 1867
e 1855 1868
e 1855 1869
e 1855 1870
e 1855 1871
e 1855 1872
e 1855 1873
e 1855 1874
e 1855 1875
e 1855 1876
e 1855 1877
e 1855 1878
e 1855 1879
e 1855 1880
e 1855 1881
e 1855 1882
e 1855 1883
e 1855 1884
e 1855 1885
e 1855 1886
e 1855 1887
e 1855 1888
e 1855 1889
e 1855 1890
e 1855 1891
e 1855 1892
e 1855 1893
e 1855 1894
e 1855 1895
e 1855 1896
e 1897 1898
e 1897 1899
e 1897 1900
e 1897 1901
e 1897 1902
e 1897 1903
e 1897 1904
e 1897 1905
e 1897 1906
e 1897 1907
e 1897 1908
e 1897 1909
e 1897 1910
e 1897 1911
e 1897 1912
e 1897 1913
e 1897 1914
e 1897 1915
e 1897 1916
e 1897 1917
e 1897 1918
e 1897 1919
e 1897 1920
e 1897 1921
e 1897 1922
e 1897 1923
e 1897 1924
e 1897 1925
e 1897 1926
e 1897 1927
e 1897 1928
e 1897 1929
e 1897 1930
e 1897 1931
e 1897 1932
e 1897 1933
e 1897 1934
e 1897 1935
e 1897 1936
e 1897 1937
e 1897 1938
e 1897 1939
e 1897 1940
e 1897 1941
e 1897 1942
e 1897 1943
e 1897 1944
e 1897 1945
e 1897 1946
e 1897 1947
e 1897 1948
e 1897 1949
e 1897 1950
e 1897 1951
e 1897 1952
e 1897 1953
e 1897 1954
e 1897 1955
e 1897 1956
e 1897 1957
e 1897 1958
e 1897 1959
e 1897 1960
e 1961 1962
e 1961 1963
e 1961 1964
e 1961 1965
e 1961 1966
e 1961 1967
e 1961 1968
e 1961 1969
e 1961 1970
e 1961 1971
e 1961 1972
e 1961 1973
e 1961 1974
e 1961 1975
e 1961 1976
e 1961 1977
e 1961 1978
e 1961 1979
e 1961 1980
e 1961 1981
e 1961 1982
e 1961 1983
e 1961 1984
e 1961 1985
e 1961 1986
e 1961 1987
e 1961 1988
e 1961 1989
e 1961 1990
e 1961 1991
e 1961 1992
e 1961 1993
e 1961 1994
e 1961 1995
e 1961 1996
e 1961 1997
e 1961 1998
e 1961 1999
e 1961 2000
e 1961 2001
e 1961 2002
e 1961 2003
e 1961 2004
e 1961 2005
e 1961 2006
e 1961 2007
e 1961 2008
e 1961 2009
e 1961 2010
e 1961 2011
e 2012 2013
e 2012 2014
e 2012 2015
e 2012 2016
e 2012 2017
e 2012 2018
e 2012 2019
e 2012 2020
e 2012 2021
e 2012 2022
e 2012 2023
e 2012 2024
e 2012 2025
e 2012 2026
e 2012 2027
e 2012 2028
e 2012 2029
e 2012 2030
e 2012 2031
e 2012 2032
e 2012 2033
e 2012 2034
e 2012 2035
e 2012 2036
e 2012 2037
e 2012 2038
e 2012 2039
e 2012 2040
e 2012 2041
e 2012 2042
e 2043 2044
e 2043 2045
e 2043 2046
e 2043 2047
e 2043 2048
e 2043 2049
e 2043 2050
e 2043 2051
e 2043 2052
e 2043 2053
e 2043 2054
e 2043 2055
e 2043 2056
e 2043 2057
e 2043 2058
e 2043 2059
e 2043 2060
e 2043 2061
e 2043 2062
e 2043 2063
e 2043 2064
e 2043 2065
e 2043 2066
e 2043 2067
e 2043 2068
e 2043 2069
e 2043 2070
e 2043 2071
e 2043 2072
e 2043 2073
e 2043 2074
e 2043 2075
e 2043 2076
e 2043 2077
e 2043 2078
e 2043 2079
e 2043 2080
e 2043 2081
e 2043 2082
e 2043 2083
e 2043 2084
e 2043 2085
e 2043 2086
e 2043 2087
e 2043 2088
e 2043 2089
e 2043 2090
e 2043 2091
e 2043 2092
e 2093 2094
e 2093 2095
e 2093 2096
e 2093 2097
e 2093 2098
e 2093 2099
e 2093 2100
e 2093 2101
e 2093 2102
e 2093 2103
e 2093 2104
e 2093 2105
e 2093 2106
e 2093 2107
e 2093 2108
e 2093 2109
e 2093 2110
e 2093 2111
e 2093 2112
e 2093 2113
e 2093 2114
e 2093 2115
e 2093 2116
e 2093 2117
e 2093 2118
e 2093 2119
e 2093 2120
e 2093 2121
e 2093 2122
e 2093 2123
e 2093 2124
e 2093 2125
e 2093 2126
e 2093 2127
e 2093 2128
e 2093 2129
e 2093 2130
e 2131 2132
e 2131 2133
e 2131 2134
e 2131 2135
e 2131 2136
e 2131 2137
e 2131 2138
e 2131 2139
e 2131 2140
e 2131 2141
e 2131 2142
e 2131 2143
e 2131 2144
e 2131 2145
e 2131 2146
e 2131 2147
e 2131 2148
e 2131 2149
e 2131 2150
e 2131 2151
e 2131 2152
e 2131 2153
e 2131 2154
e 2131 2155
e 2131 2156
e 2131 2157
e 2131 2158
e 2131 2159
e 2131 2160
e 2131 2161
e 2131 2162
e 2131 2163
e 2131 2164
e 2131 2165
e 2131 2166
e 2131 2167
e 2131 2168
e 2131 2169
e 2131 2170
e 2131 2171
e 2172 2173
e 2172 2174
e 2172 2175
e 2172 2176
e 2172 2177
e 2172 2178
e 2172 2179
e 2172 2180
e 2172 2181
e 2172 2182
e 2172 2183
e 2172 2184
e 2172 2185
e 2172 2186
e 2172 2187
e 2172 2188
e 2172 2189
e 2172 2190
e 2172 2191
e 2172 2192
e 2172 2193
e 2172 2194
e 2172 2195
e 2172 2196
e 2172 2197
e 2172 2198
e 2172 2199
e 2172 2200
e 2172 2201
e 2172 2202
e 2172 2203
e 2172 2204
e 2172 2205
e 2172 2206
e 2172 2207
e 2172 2208
e 2172 2209
e 2172 2210
e 2172 2211
e 2172 2212
e 2172 2213
e 2172 2214
e 2172 2215
e 2172 2216
e 2172 2217
e 2218 2219
e 2218 2220
e 2218 2221
e 2218 2222
e 2218 2223
e 2218 2224
e 2218 2225
e 2218 2226
e 2218 2227
e 2218 2228
e 2218 2229
e 2218 2230
e 2218 2231
e 2218 2232
e 2218 2233
e 2218 2234
e 2218 2235
e 2218 2236
e 2237 2238
e 2237 2239
e 2237 2240
e 2237 2241
e 2237 2242
e 2237 2243
e 2237 2244
e 2237 2245
e 2237 2246
e 2237 2247
e 2237 2248
e 2237 2249
e 2237 2250
e 2237 2251
e 2237 2252
e 2237 2253
e 2237 2254
e 2237 2255
e 2237 2256
e 2237 2257
e 2237 2258
e 2237 2259
e 2237 2260
e 2237 2261
e 2237 2262
e 2237 2263
e 2237 2264
e 2237 2265
e 2237 2266
e 2237 2267
e 2237 2268
e 2237 2269
e 2237 2270
e 2237 2271
e 2237 2272
e 2237 2273
e 2237 2274
e 2237 2275
e 2237 2276
e 2237 2277
e 2237 2278
e 2237 2279
e 2237 2280
e 2237 2281
e 2282 2283
e 2282 2284
e 2282 2285
e 2282 2286
e 2282 2287
e 2282 2288
e 2282 2289
e 2282 2290
e 2282 2291
e 2282 2292
e 2282 2293
e 2282 2294
e 2282 2295
e 2282 2296
e 2282 2297
e 2282 2298
e 2282 2299
e 2282 2300
e 2282 2301
e 2282 2302
e 2282 2303
e 2282 2304
e 2282 2305
e 2282 2306
e 2282 2307
e 2282 2308
e 2282 2309
e 2282 2310
e 2282 2311
e 2282 2312
e 2282 2313
e 2282 2314
e 2282 2315
e 2282 2316
e 2282 2317
e 2282 2318
e 2282 2319
e 2282 2320
e 2282 2321
e 2282 2322
e 2282 2323
e 2282 2324
e 2282 2325
e 2282 2326
e 2282 2327
e 2282 2328
e 2282 2329
e 2282 2330
e 2282 2331
e 2282 2332
e 2282 2333
e 2282 2334
e 2282 2335
e 2282 2336
e 2282 2337
e 2282 2338
e 2282 2339
e 2282 2340
e 2282 2341
e 2282 2342
e 2343 2344
e 2343 2345
e 2343 2346
e 2343 2347
e 2343 2348
e 2343 2349
e 2343 2350
e 2343 2351
e 2343 2352
e 2343 2353
e 2343 2354
e 2343 2355
e 2343 2356
e 2343 2357
e 2343 2358
e 2343 2359
e 2343 2360
e 2343 2361
e 2343 2362
e 2343 2363
e 2343 2364
e 2343 2365
e 2343 2366
e 2343 2367
e 2343 2368
e 2343 2369
e 2343 2370
e 2343 2371
e 2343 2372
e 2343 2373
e 2343 2374
e 2343 2375
e 2343 2376
e 2377 2378
e 2377 2379
e 2377 2380
e 2377 2381
e 2377 2382
e 2377 2383
e 2377 2384
e 2377 2385
e 2377 2386
e 2377 2387
e 2388 2389
e 2388 2390
e 2388 2391
e 2388 2392
e 2388 2393
e 2388 2394
e 2388 2395
e 2388 2396
e 2388 2397
e 2388 2398
e 2388 2399
e 2388 2400
e 2388 2401
e 2388 2402
e 2388 2403
e 2388 2404
e 2388 2405
e 2388 2406
e 2388 2407
e 2388 2408
e 2388 2409
e 2388 2410
e 2388 2411
e 2388 2412
e 2388 2413
e 2388 2414
e 2388 2415
e 2388 2416
e 2388 2417
e 2388 2418
e 2388 2419
e 2388 2420
e 2388 2421
e 2388 2422
e 2388 2423
e 2388 2424
e 2388 2425
e 2388 2426
e 2388 2427
e 2388 2428
e 2388 2429
e 2388 2430
e 2388 2431
e 2388 2432
e 2388 2433
e 2388 2434
e 2388 2435
e 2436 2437
e 2436 2438
e 2436 2439
e 2436 2440
e 2436 2441
e 2436 2442
e 2436 2443
e 2436 2444
e 2436 2445
e 2436 2446
e 2436 2447
e 2436 2448
e 2436 2449
e 2436 2450
e 2436 2451
e 2436 2452
e 2436 2453
e 2436 2454
e 2436 2455
e 2436 2456
e 2436 2457
e 2436 2458
e 2436 2459
e 2436 2460
e 2436 2461
e 2436 2462
e 2436 2463
e 2436 2464
e 2436 2465
e 2466 2467
e 2466 2468
e 2466 2469
e 2466 2470
e 2466 2471
e 2466 2472
e 2466 2473
e 2466 2474
e 2466 2475
e 2466 2476
e 2466 2477
e 2466 2478
e 2466 2479
e 2466 2480
e 2466 2481
e 2466 2482
e 2466 2483
e 2466 2484
e 2466 2485
e 2466 2486
e 2466 2487
e 2466 2488
e 2466 2489
e 2466 2490
e 2466 2491
e 2466 2492
e 2466 2493
e 2466 2494
e 2466 2495
e 2466 2496
e 2466 2497
e 2466 2498
e 2466 2499
e 2466 2500
e 2466 2501
e 2466 2502
e 2466 2503
e 2466 2504
e 2466 2505
e 2506 2507
e 2506 2508
e 2506 2509
e 2506 2510
e 2506 2511
e 2506 2512
e 2506 2513
e 2506 2514
e 2506 2515
e 2506 2516
e 2506 2517
e 2506 2518
e 2506 2519
e 2506 2520
e 2506 2521
e 2506 2522
e 2506 2523
e 2506 2524
e 2506 2525
e 2506 2526
e 2506 2527
e 2506 2528
e 2506 2529
e 2506 2530
e 2531 2532
e 2531 2533
e 2531 2534
e 2531 2535
e 2531 2536
e 2531 2537
e 2531 2538
e 2531 2539
e 2531 2540
e 2531 2541
e 2531 2542
e 2531 2543
e 2531 2544
e 2531 2545
e 2531 2546
e 2531 2547
e 2531 2548
e 2531 2549
e 2531 2550
e 2531 2551
e 2531 2552
e 2531 2553
e 2531 2554
e 2531 2555
e 2531 2556
e 2531 2557
e 2531 2558
e 2531 2559
e 2531 2560
e 2561 2562
e 2561 2563
e 2561 2564
e 2561 2565
e 2561 2566
e 2561 2567
e 2561 2568
e 2561 2569
e 2561 2570
e 2561 2571
e 2561 2572
e 2561 2573
e 2561 2574
e 2561 2575
e 2561 2576
e 2561 2577
e 2561 2578
e 2561 2579
e 2561 2580
e 2561 2581
e 2561 2582
e 2561 2583
e 2561 2584
e 2561 2585
e 2561 2586
e 2561 2587
e 2561 2588
e 2589 2590
e 2589 2591
e 2589 2592
e 2589 2593
e 2589 2594
e 2589 2595
e 2589 2596
e 2589 2597
e 2589 2598
e 2589 2599
e 2589 2600
e 2589 2601
e 2589 2602
e 2589 2603
e 2589 2604
e 2589 2605
e 2589 2606
e 2589 2607
e 2589 2608
e 2589 2609
e 2589 2610
e 2589 2611
e 2589 2612
e 2589 2613
e 2589 2614
e 2589 2615
e 2589 2616
e 2589 2617
e 2589 2618
e 2589 2619
e 2589 2620
e 2589 2621
e 2589 2622
e 2589 2623
e 2589 2624
e 2589 2625
e 2589 2626
e 2589 2627
e 2589 2628
e 2629 2630
e 2629 2631
e 2629 2632
e 2629 2633
e 2629 2634
e 2629 2635
e 2629 2636
e 2629 2637
e 2629 2638
e 2629 2639
e 2629 2640
e 2629 2641
e 2629 2642
e 2629 2643
e 2629 2644
e 2629 2645
e 2629 2646
e 2629 2647
e 2629 2648
e 2629 2649
e 2629 2650
e 2629 2651
e 2629 2652
e 2629 2653
e 2629 2654
e 2629 2655
e 2629 2656
e 2629 2657
e 2629 2658
e 2629 2659
e 2629 2660
e 2629 2661
e 2629 2662
e 2629 2663
e 2629 2664
e 2629 2665
e 2629 2666
e 2629 2667
e 2629 2668
e 2629 2669
e 2629 2670
e 2629 2671
e 2629 2672
e 2629 2673
e 2629 2674
e 2629 2675
e 2629 2676
e 2629 2677
e 2629 2678
e 2629 2679
e 2629 2680
e 2629 2681
e 2629 2682
e 2629 2683
e 2629 2684
e 2629 2685
e 2629 2686
e 2629 2687
e 2629 2688
e 2629 2689
e 2629 2690
e 2691 2692
e 2691 2693
e 2691 2694
e 2691 2695
e 2691 2696
e 2691 2697
e 2691 2698
e 2691 2699
e 2691 2700
e 2691 2701
e 2691 2702
e 2691 2703
e 2704 2705
e 2704 2706
e 2704 2707
e 2704 2708
e 2704 2709
e 2704 2710
e 2704 2711
e 2704 2712
e 2704 2713
e 2704 2714
e 2704 2715
e 2704 2716
e 2704 2717
e 2704 2718
e 2704 2719
e 2704 2720
e 2704 2721
e 2704 2722
e 2723 2724
e 2723 2725
e 2723 2726
e 2723 2727
e 2723 2728
e 2723 2729
e 2723 2730
e 2723 2731
e 2723 2732
e 2723 2733
e 2723 2734
e 2723 2735
e 2723 2736
e 2723 2737
e 2723 2738
e 2723 2739
e 2723 2740
e 2723 2741
e 2723 2742
e 2723 2743
e 2723 2744
e 2723 2745
e 2723 2746
e 2723 2747
e 2723 2748
e 2723 2749
e 2723 2750
e 2723 2751
e 2723 2752
e 2723 2753
e 2723 2754
e 2723 2755
e 2723 2756
e 2723 2757
e 2723 2758
e 2723 2759
e 2723 2760
e 2723 2761
e 2723 2762
e 2723 2763
e 2723 2764
e 2723 2765
e 2723 2766
e 2723 2767
e 2723 2768
e 2723 2769
e 2723 2770
e 2723 2771
e 2723 2772
